files/upTests/__essence_catalog/prob015/0002.eprime.solution
language ESSENCE' 1.0
$ minion Nodes: 81937
$ minion TotalTime: 2.73537
$ Savile Row TotalTime: 3.804
letting schur_SetOfSets_Explicit_ExplicitVarSize_tuple1 be [[0, 0, 0, 0], 
[0, 0, 0, 1], 
[0, 1, 1, 1]]
letting schur_SetOfSets_Explicit_ExplicitVarSize_tuple2 be [[1, 1, 1, 1], 
[1, 1, 1, 1], 
[1, 2, 3, 4]]
